NAME : rnd95_20.tsp
TYPE : TSP
DIMENSION : 20
EDGE_WEIGHT_TYPE : EUC_2D
NODE_COORD_SECTION
0 813 210
1 852 727
2 826 246
3 991 431
4 19 568
5 186 674
6 2 793
7 970 879
8 801 955
9 866 892
10 496 517
11 25 610
12 841 659
13 935 190
14 401 627
15 565 87
16 929 325
17 941 248
18 701 466
19 507 816
